set N := AA AB AC AD AE AF AG AH AI AJ AK AL AM AN AO AP AQ AR AS AT;

set T := AA AB AC AD AE AF AG AH AI AJ;

table	K={K}	u(K)	o(K)	o_(K):
	K	u	o	o_	:=
	1	10.00	AK	AL
	2	15.75	AM	AN
	3	14.49	AO	AP
	4	14.04	AQ	AR
	5	30.00	AS	AT
;

param c default 0 :=
AA	AB	1	103.92
AA	AB	2	181.63
AA	AB	3	174.70
AA	AB	4	163.72
AA	AB	5	189.70
AA	AC	1	145.46
AA	AC	2	254.24
AA	AC	3	244.55
AA	AC	4	229.18
AA	AC	5	265.54
AA	AD	1	170.84
AA	AD	2	298.59
AA	AD	3	287.20
AA	AD	4	269.16
AA	AD	5	311.87
AA	AE	1	589.95
AA	AE	2	1031.12
AA	AE	3	991.79
AA	AE	4	929.46
AA	AE	5	1076.96
AA	AF	1	140.88
AA	AF	2	246.23
AA	AF	3	236.83
AA	AF	4	221.95
AA	AF	5	257.17
AA	AG	1	94.35
AA	AG	2	164.90
AA	AG	3	158.61
AA	AG	4	148.65
AA	AG	5	172.23
AA	AH	1	283.05
AA	AH	2	494.71
AA	AH	3	475.84
AA	AH	4	445.94
AA	AH	5	516.70
AA	AI	1	296.15
AA	AI	2	517.61
AA	AI	3	497.87
AA	AI	4	466.58
AA	AI	5	540.62
AA	AJ	1	232.37
AA	AJ	2	406.13
AA	AJ	3	390.64
AA	AJ	4	366.09
AA	AJ	5	424.18
AA	AK	1	335.60
AA	AK	2	586.57
AA	AK	3	564.20
AA	AK	4	528.74
AA	AK	5	612.64
AA	AL	1	401.74
AA	AL	2	702.18
AA	AL	3	675.39
AA	AL	4	632.95
AA	AL	5	733.39
AA	AM	1	343.79
AA	AM	2	600.87
AA	AM	3	577.95
AA	AM	4	541.63
AA	AM	5	627.58
AA	AN	1	42.07
AA	AN	2	73.53
AA	AN	3	70.72
AA	AN	4	66.28
AA	AN	5	76.80
AA	AO	1	385.44
AA	AO	2	673.68
AA	AO	3	647.98
AA	AO	4	607.26
AA	AO	5	703.63
AA	AP	1	393.25
AA	AP	2	687.32
AA	AP	3	661.10
AA	AP	4	619.56
AA	AP	5	717.87
AA	AQ	1	28.83
AA	AQ	2	50.38
AA	AQ	3	48.46
AA	AQ	4	45.42
AA	AQ	5	52.62
AA	AR	1	324.67
AA	AR	2	567.47
AA	AR	3	545.82
AA	AR	4	511.52
AA	AR	5	592.69
AA	AS	1	513.08
AA	AS	2	896.77
AA	AS	3	862.56
AA	AS	4	808.36
AA	AS	5	936.63
AA	AT	1	181.74
AA	AT	2	317.65
AA	AT	3	305.53
AA	AT	4	286.33
AA	AT	5	331.77
AB	AA	1	103.92
AB	AA	2	181.63
AB	AA	3	174.70
AB	AA	4	163.72
AB	AA	5	189.70
AB	AC	1	187.53
AB	AC	2	327.77
AB	AC	3	315.27
AB	AC	4	295.46
AB	AC	5	342.34
AB	AD	1	70.44
AB	AD	2	123.11
AB	AD	3	118.42
AB	AD	4	110.98
AB	AD	5	128.59
AB	AE	1	486.96
AB	AE	2	851.13
AB	AE	3	818.66
AB	AE	4	767.21
AB	AE	5	888.96
AB	AF	1	205.72
AB	AF	2	359.56
AB	AF	3	345.84
AB	AF	4	324.11
AB	AF	5	375.54
AB	AG	1	157.04
AB	AG	2	274.48
AB	AG	3	264.01
AB	AG	4	247.42
AB	AG	5	286.68
AB	AH	1	179.58
AB	AH	2	313.88
AB	AH	3	301.91
AB	AH	4	282.93
AB	AH	5	327.83
AB	AI	1	205.36
AB	AI	2	358.94
AB	AI	3	345.24
AB	AI	4	323.55
AB	AI	5	374.89
AB	AJ	1	130.11
AB	AJ	2	227.40
AB	AJ	3	218.73
AB	AJ	4	204.98
AB	AJ	5	237.51
AB	AK	1	255.44
AB	AK	2	446.46
AB	AK	3	429.43
AB	AK	4	402.44
AB	AK	5	466.30
AB	AL	1	307.38
AB	AL	2	537.25
AB	AL	3	516.76
AB	AL	4	484.28
AB	AL	5	561.13
AB	AM	1	293.97
AB	AM	2	513.80
AB	AM	3	494.20
AB	AM	4	463.14
AB	AM	5	536.64
AB	AN	1	63.53
AB	AN	2	111.05
AB	AN	3	106.81
AB	AN	4	100.10
AB	AN	5	115.98
AB	AO	1	289.50
AB	AO	2	505.99
AB	AO	3	486.69
AB	AO	4	456.10
AB	AO	5	528.48
AB	AP	1	307.19
AB	AP	2	536.92
AB	AP	3	516.44
AB	AP	4	483.98
AB	AP	5	560.78
AB	AQ	1	120.97
AB	AQ	2	211.43
AB	AQ	3	203.36
AB	AQ	4	190.58
AB	AQ	5	220.83
AB	AR	1	304.66
AB	AR	2	532.49
AB	AR	3	512.18
AB	AR	4	479.99
AB	AR	5	556.16
AB	AS	1	409.17
AB	AS	2	715.16
AB	AS	3	687.88
AB	AS	4	644.65
AB	AS	5	746.94
AB	AT	1	77.96
AB	AT	2	136.26
AB	AT	3	131.07
AB	AT	4	122.83
AB	AT	5	142.32
AC	AA	1	145.46
AC	AA	2	254.24
AC	AA	3	244.55
AC	AA	4	229.18
AC	AA	5	265.54
AC	AB	1	187.53
AC	AB	2	327.77
AC	AB	3	315.27
AC	AB	4	295.46
AC	AB	5	342.34
AC	AD	1	217.78
AC	AD	2	380.64
AC	AD	3	366.11
AC	AD	4	343.11
AC	AD	5	397.55
AC	AE	1	605.45
AC	AE	2	1058.22
AC	AE	3	1017.85
AC	AE	4	953.89
AC	AE	5	1105.26
AC	AF	1	43.56
AC	AF	2	76.13
AC	AF	3	73.22
AC	AF	4	68.62
AC	AF	5	79.51
AC	AG	1	54.02
AC	AG	2	94.42
AC	AG	3	90.82
AC	AG	4	85.11
AC	AG	5	98.62
AC	AH	1	322.34
AC	AH	2	563.39
AC	AH	3	541.90
AC	AH	4	507.84
AC	AH	5	588.43
AC	AI	1	389.57
AC	AI	2	680.90
AC	AI	3	654.93
AC	AI	4	613.77
AC	AI	5	711.16
AC	AJ	1	302.00
AC	AJ	2	527.85
AC	AJ	3	507.71
AC	AJ	4	475.80
AC	AJ	5	551.31
AC	AK	1	298.14
AC	AK	2	521.09
AC	AK	3	501.22
AC	AK	4	469.72
AC	AK	5	544.25
AC	AL	1	486.43
AC	AL	2	850.19
AC	AL	3	817.75
AC	AL	4	766.36
AC	AL	5	887.98
AC	AM	1	256.52
AC	AM	2	448.36
AC	AM	3	431.25
AC	AM	4	404.15
AC	AM	5	468.28
AC	AN	1	146.76
AC	AN	2	256.50
AC	AN	3	246.72
AC	AN	4	231.21
AC	AN	5	267.91
AC	AO	1	466.92
AC	AO	2	816.09
AC	AO	3	784.96
AC	AO	4	735.63
AC	AO	5	852.36
AC	AP	1	492.48
AC	AP	2	860.76
AC	AP	3	827.92
AC	AP	4	775.89
AC	AP	5	899.02
AC	AQ	1	119.70
AC	AQ	2	209.22
AC	AQ	3	201.24
AC	AQ	4	188.59
AC	AQ	5	218.52
AC	AR	1	204.82
AC	AR	2	357.98
AC	AR	3	344.33
AC	AR	4	322.69
AC	AR	5	373.90
AC	AS	1	549.27
AC	AS	2	960.02
AC	AS	3	923.40
AC	AS	4	865.37
AC	AS	5	1002.69
AC	AT	1	240.89
AC	AT	2	421.03
AC	AT	3	404.96
AC	AT	4	379.52
AC	AT	5	439.74
AD	AA	1	170.84
AD	AA	2	298.59
AD	AA	3	287.20
AD	AA	4	269.16
AD	AA	5	311.87
AD	AB	1	70.44
AD	AB	2	123.11
AD	AB	3	118.42
AD	AB	4	110.98
AD	AB	5	128.59
AD	AC	1	217.78
AD	AC	2	380.64
AD	AC	3	366.11
AD	AC	4	343.11
AD	AC	5	397.55
AD	AE	1	419.34
AD	AE	2	732.93
AD	AE	3	704.97
AD	AE	4	660.66
AD	AE	5	765.50
AD	AF	1	246.39
AD	AF	2	430.64
AD	AF	3	414.21
AD	AF	4	388.18
AD	AF	5	449.78
AD	AG	1	202.50
AD	AG	2	353.93
AD	AG	3	340.43
AD	AG	4	319.04
AD	AG	5	369.66
AD	AH	1	113.96
AD	AH	2	199.19
AD	AH	3	191.59
AD	AH	4	179.55
AD	AH	5	208.04
AD	AI	1	179.58
AD	AI	2	313.88
AD	AI	3	301.91
AD	AI	4	282.93
AD	AI	5	327.83
AD	AJ	1	85.42
AD	AJ	2	149.30
AD	AJ	3	143.60
AD	AJ	4	134.58
AD	AJ	5	155.93
AD	AK	1	192.54
AD	AK	2	336.52
AD	AK	3	323.69
AD	AK	4	303.34
AD	AK	5	351.48
AD	AL	1	269.85
AD	AL	2	471.64
AD	AL	3	453.65
AD	AL	4	425.14
AD	AL	5	492.61
AD	AM	1	250.66
AD	AM	2	438.11
AD	AM	3	421.40
AD	AM	4	394.92
AD	AM	5	457.59
AD	AN	1	128.85
AD	AN	2	225.21
AD	AN	3	216.62
AD	AN	4	203.01
AD	AN	5	235.22
AD	AO	1	249.85
AD	AO	2	436.70
AD	AO	3	420.04
AD	AO	4	393.64
AD	AO	5	456.11
AD	AP	1	281.92
AD	AP	2	492.75
AD	AP	3	473.95
AD	AP	4	444.16
AD	AP	5	514.65
AD	AQ	1	182.99
AD	AQ	2	319.84
AD	AQ	3	307.64
AD	AQ	4	288.30
AD	AQ	5	334.05
AD	AR	1	282.06
AD	AR	2	492.99
AD	AR	3	474.18
AD	AR	4	444.38
AD	AR	5	514.90
AD	AS	1	346.12
AD	AS	2	604.96
AD	AS	3	581.88
AD	AS	4	545.32
AD	AS	5	631.85
AD	AT	1	25.57
AD	AT	2	44.70
AD	AT	3	42.99
AD	AT	4	40.29
AD	AT	5	46.69
AE	AA	1	589.95
AE	AA	2	1031.12
AE	AA	3	991.79
AE	AA	4	929.46
AE	AA	5	1076.96
AE	AB	1	486.96
AE	AB	2	851.13
AE	AB	3	818.66
AE	AB	4	767.21
AE	AB	5	888.96
AE	AC	1	605.45
AE	AC	2	1058.22
AE	AC	3	1017.85
AE	AC	4	953.89
AE	AC	5	1105.26
AE	AD	1	419.34
AE	AD	2	732.93
AE	AD	3	704.97
AE	AD	4	660.66
AE	AD	5	765.50
AE	AF	1	644.33
AE	AF	2	1126.18
AE	AF	3	1083.22
AE	AF	4	1015.15
AE	AF	5	1176.24
AE	AG	1	609.78
AE	AG	2	1065.78
AE	AG	3	1025.12
AE	AG	4	960.70
AE	AG	5	1113.15
AE	AH	1	307.51
AE	AH	2	537.47
AE	AH	3	516.97
AE	AH	4	484.48
AE	AH	5	561.36
AE	AI	1	368.00
AE	AI	2	643.19
AE	AI	3	618.66
AE	AI	4	579.78
AE	AI	5	671.78
AE	AJ	1	369.78
AE	AJ	2	646.30
AE	AJ	3	621.65
AE	AJ	4	582.58
AE	AJ	5	675.03
AE	AK	1	326.04
AE	AK	2	569.87
AE	AK	3	548.13
AE	AK	4	513.68
AE	AK	5	595.20
AE	AL	1	304.24
AE	AL	2	531.76
AE	AL	3	511.47
AE	AL	4	479.33
AE	AL	5	555.39
AE	AM	1	432.19
AE	AM	2	755.39
AE	AM	3	726.58
AE	AM	4	680.92
AE	AM	5	788.97
AE	AN	1	548.10
AE	AN	2	957.98
AE	AN	3	921.44
AE	AN	4	863.53
AE	AN	5	1000.56
AE	AO	1	298.65
AE	AO	2	521.99
AE	AO	3	502.08
AE	AO	4	470.53
AE	AO	5	545.19
AE	AP	1	360.53
AE	AP	2	630.14
AE	AP	3	606.10
AE	AP	4	568.01
AE	AP	5	658.15
AE	AQ	1	601.85
AE	AQ	2	1051.93
AE	AQ	3	1011.80
AE	AQ	4	948.21
AE	AQ	5	1098.68
AE	AR	1	527.27
AE	AR	2	921.58
AE	AR	3	886.42
AE	AR	4	830.71
AE	AR	5	962.54
AE	AS	1	105.46
AE	AS	2	184.33
AE	AS	3	177.30
AE	AS	4	166.16
AE	AS	5	192.53
AE	AT	1	409.22
AE	AT	2	715.25
AE	AT	3	687.96
AE	AT	4	644.73
AE	AT	5	747.04
AF	AA	1	140.88
AF	AA	2	246.23
AF	AA	3	236.83
AF	AA	4	221.95
AF	AA	5	257.17
AF	AB	1	205.72
AF	AB	2	359.56
AF	AB	3	345.84
AF	AB	4	324.11
AF	AB	5	375.54
AF	AC	1	43.56
AF	AC	2	76.13
AF	AC	3	73.22
AF	AC	4	68.62
AF	AC	5	79.51
AF	AD	1	246.39
AF	AD	2	430.64
AF	AD	3	414.21
AF	AD	4	388.18
AF	AD	5	449.78
AF	AE	1	644.33
AF	AE	2	1126.18
AF	AE	3	1083.22
AF	AE	4	1015.15
AF	AE	5	1176.24
AF	AG	1	49.81
AF	AG	2	87.05
AF	AG	3	83.73
AF	AG	4	78.47
AF	AG	5	90.92
AF	AH	1	355.29
AF	AH	2	620.98
AF	AH	3	597.29
AF	AH	4	559.75
AF	AH	5	648.58
AF	AI	1	410.90
AF	AI	2	718.18
AF	AI	3	690.78
AF	AI	4	647.37
AF	AI	5	750.10
AF	AJ	1	328.17
AF	AJ	2	573.58
AF	AJ	3	551.70
AF	AJ	4	517.03
AF	AJ	5	599.08
AF	AK	1	340.72
AF	AK	2	595.52
AF	AK	3	572.81
AF	AK	4	536.81
AF	AK	5	621.99
AF	AL	1	511.09
AF	AL	2	893.29
AF	AL	3	859.22
AF	AL	4	805.22
AF	AL	5	933.00
AF	AM	1	299.51
AF	AM	2	523.48
AF	AM	3	503.51
AF	AM	4	471.87
AF	AM	5	546.75
AF	AN	1	154.44
AF	AN	2	269.93
AF	AN	3	259.64
AF	AN	4	243.32
AF	AN	5	281.93
AF	AO	1	492.29
AF	AO	2	860.44
AF	AO	3	827.61
AF	AO	4	775.60
AF	AO	5	898.68
AF	AP	1	512.91
AF	AP	2	896.47
AF	AP	3	862.27
AF	AP	4	808.08
AF	AP	5	936.32
AF	AQ	1	112.29
AF	AQ	2	196.26
AF	AQ	3	188.78
AF	AQ	4	176.91
AF	AQ	5	204.99
AF	AR	1	243.34
AF	AR	2	425.31
AF	AR	3	409.08
AF	AR	4	383.37
AF	AR	5	444.21
AF	AS	1	584.82
AF	AS	2	1022.16
AF	AS	3	983.17
AF	AS	4	921.38
AF	AS	5	1067.59
AF	AT	1	267.76
AF	AT	2	468.00
AF	AT	3	450.15
AF	AT	4	421.86
AF	AT	5	488.80
AG	AA	1	94.35
AG	AA	2	164.90
AG	AA	3	158.61
AG	AA	4	148.65
AG	AA	5	172.23
AG	AB	1	157.04
AG	AB	2	274.48
AG	AB	3	264.01
AG	AB	4	247.42
AG	AB	5	286.68
AG	AC	1	54.02
AG	AC	2	94.42
AG	AC	3	90.82
AG	AC	4	85.11
AG	AC	5	98.62
AG	AD	1	202.50
AG	AD	2	353.93
AG	AD	3	340.43
AG	AD	4	319.04
AG	AD	5	369.66
AG	AE	1	609.78
AG	AE	2	1065.78
AG	AE	3	1025.12
AG	AE	4	960.70
AG	AE	5	1113.15
AG	AF	1	49.81
AG	AF	2	87.05
AG	AF	3	83.73
AG	AF	4	78.47
AG	AF	5	90.92
AG	AH	1	314.08
AG	AH	2	548.96
AG	AH	3	528.02
AG	AH	4	494.84
AG	AH	5	573.36
AG	AI	1	362.40
AG	AI	2	633.42
AG	AI	3	609.25
AG	AI	4	570.96
AG	AI	5	661.57
AG	AJ	1	282.01
AG	AJ	2	492.91
AG	AJ	3	474.10
AG	AJ	4	444.31
AG	AJ	5	514.82
AG	AK	1	317.97
AG	AK	2	555.75
AG	AK	3	534.55
AG	AK	4	500.95
AG	AK	5	580.45
AG	AL	1	463.65
AG	AL	2	810.38
AG	AL	3	779.47
AG	AL	4	730.48
AG	AL	5	846.40
AG	AM	1	294.05
AG	AM	2	513.95
AG	AM	3	494.34
AG	AM	4	463.27
AG	AM	5	536.79
AG	AN	1	104.66
AG	AN	2	182.92
AG	AN	3	175.94
AG	AN	4	164.88
AG	AN	5	191.05
AG	AO	1	445.21
AG	AO	2	778.14
AG	AO	3	748.46
AG	AO	4	701.42
AG	AO	5	812.73
AG	AP	1	464.02
AG	AP	2	811.03
AG	AP	3	780.09
AG	AP	4	731.06
AG	AP	5	847.07
AG	AQ	1	67.00
AG	AQ	2	117.11
AG	AQ	3	112.64
AG	AQ	4	105.56
AG	AQ	5	122.31
AG	AR	1	253.16
AG	AR	2	442.48
AG	AR	3	425.60
AG	AR	4	398.86
AG	AR	5	462.15
AG	AS	1	545.48
AG	AS	2	953.41
AG	AS	3	917.04
AG	AS	4	859.41
AG	AS	5	995.79
AG	AT	1	222.45
AG	AT	2	388.80
AG	AT	3	373.97
AG	AT	4	350.47
AG	AT	5	406.08
AH	AA	1	283.05
AH	AA	2	494.71
AH	AA	3	475.84
AH	AA	4	445.94
AH	AA	5	516.70
AH	AB	1	179.58
AH	AB	2	313.88
AH	AB	3	301.91
AH	AB	4	282.93
AH	AB	5	327.83
AH	AC	1	322.34
AH	AC	2	563.39
AH	AC	3	541.90
AH	AC	4	507.84
AH	AC	5	588.43
AH	AD	1	113.96
AH	AD	2	199.19
AH	AD	3	191.59
AH	AD	4	179.55
AH	AD	5	208.04
AH	AE	1	307.51
AH	AE	2	537.47
AH	AE	3	516.97
AH	AE	4	484.48
AH	AE	5	561.36
AH	AF	1	355.29
AH	AF	2	620.98
AH	AF	3	597.29
AH	AF	4	559.75
AH	AF	5	648.58
AH	AG	1	314.08
AH	AG	2	548.96
AH	AG	3	528.02
AH	AG	4	494.84
AH	AG	5	573.36
AH	AI	1	140.88
AH	AI	2	246.23
AH	AI	3	236.83
AH	AI	4	221.95
AH	AI	5	257.17
AH	AJ	1	73.48
AH	AJ	2	128.43
AH	AJ	3	123.53
AH	AJ	4	115.77
AH	AJ	5	134.14
AH	AK	1	164.06
AH	AK	2	286.75
AH	AK	3	275.82
AH	AK	4	258.48
AH	AK	5	299.50
AH	AL	1	191.36
AH	AL	2	334.46
AH	AL	3	321.71
AH	AL	4	301.49
AH	AL	5	349.33
AH	AM	1	266.53
AH	AM	2	465.85
AH	AM	3	448.08
AH	AM	4	419.92
AH	AM	5	486.56
AH	AN	1	241.50
AH	AN	2	422.10
AH	AN	3	406.00
AH	AN	4	380.48
AH	AN	5	440.86
AH	AO	1	169.87
AH	AO	2	296.90
AH	AO	3	285.57
AH	AO	4	267.62
AH	AO	5	310.09
AH	AP	1	223.35
AH	AP	2	390.37
AH	AP	3	375.48
AH	AP	4	351.88
AH	AP	5	407.72
AH	AQ	1	296.74
AH	AQ	2	518.64
AH	AQ	3	498.86
AH	AQ	4	467.51
AH	AQ	5	541.70
AH	AR	1	330.39
AH	AR	2	577.47
AH	AR	3	555.44
AH	AR	4	520.53
AH	AR	5	603.13
AH	AS	1	232.26
AH	AS	2	405.95
AH	AS	3	390.46
AH	AS	4	365.92
AH	AS	5	423.99
AH	AT	1	101.73
AH	AT	2	177.80
AH	AT	3	171.01
AH	AT	4	160.27
AH	AT	5	185.70
AI	AA	1	296.15
AI	AA	2	517.61
AI	AA	3	497.87
AI	AA	4	466.58
AI	AA	5	540.62
AI	AB	1	205.36
AI	AB	2	358.94
AI	AB	3	345.24
AI	AB	4	323.55
AI	AB	5	374.89
AI	AC	1	389.57
AI	AC	2	680.90
AI	AC	3	654.93
AI	AC	4	613.77
AI	AC	5	711.16
AI	AD	1	179.58
AI	AD	2	313.88
AI	AD	3	301.91
AI	AD	4	282.93
AI	AD	5	327.83
AI	AE	1	368.00
AI	AE	2	643.19
AI	AE	3	618.66
AI	AE	4	579.78
AI	AE	5	671.78
AI	AF	1	410.90
AI	AF	2	718.18
AI	AF	3	690.78
AI	AF	4	647.37
AI	AF	5	750.10
AI	AG	1	362.40
AI	AG	2	633.42
AI	AG	3	609.25
AI	AG	4	570.96
AI	AG	5	661.57
AI	AH	1	140.88
AI	AH	2	246.23
AI	AH	3	236.83
AI	AH	4	221.95
AI	AH	5	257.17
AI	AJ	1	97.39
AI	AJ	2	170.23
AI	AJ	3	163.73
AI	AJ	4	153.44
AI	AJ	5	177.79
AI	AK	1	304.61
AI	AK	2	532.40
AI	AK	3	512.09
AI	AK	4	479.91
AI	AK	5	556.06
AI	AL	1	106.52
AI	AL	2	186.17
AI	AL	3	179.07
AI	AL	4	167.81
AI	AL	5	194.44
AI	AM	1	400.97
AI	AM	2	700.82
AI	AM	3	674.09
AI	AM	4	631.73
AI	AM	5	731.97
AI	AN	1	263.47
AI	AN	2	460.50
AI	AN	3	442.93
AI	AN	4	415.09
AI	AN	5	480.96
AI	AO	1	92.92
AI	AO	2	162.40
AI	AO	3	156.21
AI	AO	4	146.39
AI	AO	5	169.62
AI	AP	1	103.09
AI	AP	2	180.18
AI	AP	3	173.31
AI	AP	4	162.42
AI	AP	5	188.19
AI	AQ	1	319.88
AI	AQ	2	559.09
AI	AQ	3	537.76
AI	AQ	4	503.97
AI	AQ	5	583.94
AI	AR	1	452.56
AI	AR	2	790.99
AI	AR	3	760.81
AI	AR	4	713.00
AI	AR	5	826.15
AI	AS	1	267.71
AI	AS	2	467.91
AI	AS	3	450.06
AI	AS	4	421.78
AI	AS	5	488.71
AI	AT	1	154.08
AI	AT	2	269.30
AI	AT	3	259.03
AI	AT	4	242.75
AI	AT	5	281.27
AJ	AA	1	232.37
AJ	AA	2	406.13
AJ	AA	3	390.64
AJ	AA	4	366.09
AJ	AA	5	424.18
AJ	AB	1	130.11
AJ	AB	2	227.40
AJ	AB	3	218.73
AJ	AB	4	204.98
AJ	AB	5	237.51
AJ	AC	1	302.00
AJ	AC	2	527.85
AJ	AC	3	507.71
AJ	AC	4	475.80
AJ	AC	5	551.31
AJ	AD	1	85.42
AJ	AD	2	149.30
AJ	AD	3	143.60
AJ	AD	4	134.58
AJ	AD	5	155.93
AJ	AE	1	369.78
AJ	AE	2	646.30
AJ	AE	3	621.65
AJ	AE	4	582.58
AJ	AE	5	675.03
AJ	AF	1	328.17
AJ	AF	2	573.58
AJ	AF	3	551.70
AJ	AF	4	517.03
AJ	AF	5	599.08
AJ	AG	1	282.01
AJ	AG	2	492.91
AJ	AG	3	474.10
AJ	AG	4	444.31
AJ	AG	5	514.82
AJ	AH	1	73.48
AJ	AH	2	128.43
AJ	AH	3	123.53
AJ	AH	4	115.77
AJ	AH	5	134.14
AJ	AI	1	97.39
AJ	AI	2	170.23
AJ	AI	3	163.73
AJ	AI	4	153.44
AJ	AI	5	177.79
AJ	AK	1	221.63
AJ	AK	2	387.38
AJ	AK	3	372.60
AJ	AK	4	349.18
AJ	AK	5	404.59
AJ	AL	1	184.63
AJ	AL	2	322.69
AJ	AL	3	310.38
AJ	AL	4	290.88
AJ	AL	5	337.04
AJ	AM	1	308.05
AJ	AM	2	538.42
AJ	AM	3	517.88
AJ	AM	4	485.34
AJ	AM	5	562.35
AJ	AN	1	193.45
AJ	AN	2	338.12
AJ	AN	3	325.22
AJ	AN	4	304.78
AJ	AN	5	353.14
AJ	AO	1	164.92
AJ	AO	2	288.25
AJ	AO	3	277.26
AJ	AO	4	259.83
AJ	AO	5	301.06
AJ	AP	1	197.80
AJ	AP	2	345.72
AJ	AP	3	332.53
AJ	AP	4	311.63
AJ	AP	5	361.08
AJ	AQ	1	251.04
AJ	AQ	2	438.78
AJ	AQ	3	422.04
AJ	AQ	4	395.52
AJ	AQ	5	458.28
AJ	AR	1	355.50
AJ	AR	2	621.35
AJ	AR	3	597.65
AJ	AR	4	560.09
AJ	AR	5	648.97
AJ	AS	1	283.94
AJ	AS	2	496.28
AJ	AS	3	477.35
AJ	AS	4	447.35
AJ	AS	5	518.34
AJ	AT	1	61.15
AJ	AT	2	106.88
AJ	AT	3	102.80
AJ	AT	4	96.34
AJ	AT	5	111.63
AK	AA	1	335.60
AK	AA	2	586.57
AK	AA	3	564.20
AK	AA	4	528.74
AK	AA	5	612.64
AK	AB	1	255.44
AK	AB	2	446.46
AK	AB	3	429.43
AK	AB	4	402.44
AK	AB	5	466.30
AK	AC	1	298.14
AK	AC	2	521.09
AK	AC	3	501.22
AK	AC	4	469.72
AK	AC	5	544.25
AK	AD	1	192.54
AK	AD	2	336.52
AK	AD	3	323.69
AK	AD	4	303.34
AK	AD	5	351.48
AK	AE	1	326.04
AK	AE	2	569.87
AK	AE	3	548.13
AK	AE	4	513.68
AK	AE	5	595.20
AK	AF	1	340.72
AK	AF	2	595.52
AK	AF	3	572.81
AK	AF	4	536.81
AK	AF	5	621.99
AK	AG	1	317.97
AK	AG	2	555.75
AK	AG	3	534.55
AK	AG	4	500.95
AK	AG	5	580.45
AK	AH	1	164.06
AK	AH	2	286.75
AK	AH	3	275.82
AK	AH	4	258.48
AK	AH	5	299.50
AK	AI	1	304.61
AK	AI	2	532.40
AK	AI	3	512.09
AK	AI	4	479.91
AK	AI	5	556.06
AK	AJ	1	221.63
AK	AJ	2	387.38
AK	AJ	3	372.60
AK	AJ	4	349.18
AK	AJ	5	404.59
AL	AA	1	401.74
AL	AA	2	702.18
AL	AA	3	675.39
AL	AA	4	632.95
AL	AA	5	733.39
AL	AB	1	307.38
AL	AB	2	537.25
AL	AB	3	516.76
AL	AB	4	484.28
AL	AB	5	561.13
AL	AC	1	486.43
AL	AC	2	850.19
AL	AC	3	817.75
AL	AC	4	766.36
AL	AC	5	887.98
AL	AD	1	269.85
AL	AD	2	471.64
AL	AD	3	453.65
AL	AD	4	425.14
AL	AD	5	492.61
AL	AE	1	304.24
AL	AE	2	531.76
AL	AE	3	511.47
AL	AE	4	479.33
AL	AE	5	555.39
AL	AF	1	511.09
AL	AF	2	893.29
AL	AF	3	859.22
AL	AF	4	805.22
AL	AF	5	933.00
AL	AG	1	463.65
AL	AG	2	810.38
AL	AG	3	779.47
AL	AG	4	730.48
AL	AG	5	846.40
AL	AH	1	191.36
AL	AH	2	334.46
AL	AH	3	321.71
AL	AH	4	301.49
AL	AH	5	349.33
AL	AI	1	106.52
AL	AI	2	186.17
AL	AI	3	179.07
AL	AI	4	167.81
AL	AI	5	194.44
AL	AJ	1	184.63
AL	AJ	2	322.69
AL	AJ	3	310.38
AL	AJ	4	290.88
AL	AJ	5	337.04
AM	AA	1	343.79
AM	AA	2	600.87
AM	AA	3	577.95
AM	AA	4	541.63
AM	AA	5	627.58
AM	AB	1	293.97
AM	AB	2	513.80
AM	AB	3	494.20
AM	AB	4	463.14
AM	AB	5	536.64
AM	AC	1	256.52
AM	AC	2	448.36
AM	AC	3	431.25
AM	AC	4	404.15
AM	AC	5	468.28
AM	AD	1	250.66
AM	AD	2	438.11
AM	AD	3	421.40
AM	AD	4	394.92
AM	AD	5	457.59
AM	AE	1	432.19
AM	AE	2	755.39
AM	AE	3	726.58
AM	AE	4	680.92
AM	AE	5	788.97
AM	AF	1	299.51
AM	AF	2	523.48
AM	AF	3	503.51
AM	AF	4	471.87
AM	AF	5	546.75
AM	AG	1	294.05
AM	AG	2	513.95
AM	AG	3	494.34
AM	AG	4	463.27
AM	AG	5	536.79
AM	AH	1	266.53
AM	AH	2	465.85
AM	AH	3	448.08
AM	AH	4	419.92
AM	AH	5	486.56
AM	AI	1	400.97
AM	AI	2	700.82
AM	AI	3	674.09
AM	AI	4	631.73
AM	AI	5	731.97
AM	AJ	1	308.05
AM	AJ	2	538.42
AM	AJ	3	517.88
AM	AJ	4	485.34
AM	AJ	5	562.35
AN	AA	1	42.07
AN	AA	2	73.53
AN	AA	3	70.72
AN	AA	4	66.28
AN	AA	5	76.80
AN	AB	1	63.53
AN	AB	2	111.05
AN	AB	3	106.81
AN	AB	4	100.10
AN	AB	5	115.98
AN	AC	1	146.76
AN	AC	2	256.50
AN	AC	3	246.72
AN	AC	4	231.21
AN	AC	5	267.91
AN	AD	1	128.85
AN	AD	2	225.21
AN	AD	3	216.62
AN	AD	4	203.01
AN	AD	5	235.22
AN	AE	1	548.10
AN	AE	2	957.98
AN	AE	3	921.44
AN	AE	4	863.53
AN	AE	5	1000.56
AN	AF	1	154.44
AN	AF	2	269.93
AN	AF	3	259.64
AN	AF	4	243.32
AN	AF	5	281.93
AN	AG	1	104.66
AN	AG	2	182.92
AN	AG	3	175.94
AN	AG	4	164.88
AN	AG	5	191.05
AN	AH	1	241.50
AN	AH	2	422.10
AN	AH	3	406.00
AN	AH	4	380.48
AN	AH	5	440.86
AN	AI	1	263.47
AN	AI	2	460.50
AN	AI	3	442.93
AN	AI	4	415.09
AN	AI	5	480.96
AN	AJ	1	193.45
AN	AJ	2	338.12
AN	AJ	3	325.22
AN	AJ	4	304.78
AN	AJ	5	353.14
AO	AA	1	385.44
AO	AA	2	673.68
AO	AA	3	647.98
AO	AA	4	607.26
AO	AA	5	703.63
AO	AB	1	289.50
AO	AB	2	505.99
AO	AB	3	486.69
AO	AB	4	456.10
AO	AB	5	528.48
AO	AC	1	466.92
AO	AC	2	816.09
AO	AC	3	784.96
AO	AC	4	735.63
AO	AC	5	852.36
AO	AD	1	249.85
AO	AD	2	436.70
AO	AD	3	420.04
AO	AD	4	393.64
AO	AD	5	456.11
AO	AE	1	298.65
AO	AE	2	521.99
AO	AE	3	502.08
AO	AE	4	470.53
AO	AE	5	545.19
AO	AF	1	492.29
AO	AF	2	860.44
AO	AF	3	827.61
AO	AF	4	775.60
AO	AF	5	898.68
AO	AG	1	445.21
AO	AG	2	778.14
AO	AG	3	748.46
AO	AG	4	701.42
AO	AG	5	812.73
AO	AH	1	169.87
AO	AH	2	296.90
AO	AH	3	285.57
AO	AH	4	267.62
AO	AH	5	310.09
AO	AI	1	92.92
AO	AI	2	162.40
AO	AI	3	156.21
AO	AI	4	146.39
AO	AI	5	169.62
AO	AJ	1	164.92
AO	AJ	2	288.25
AO	AJ	3	277.26
AO	AJ	4	259.83
AO	AJ	5	301.06
AP	AA	1	393.25
AP	AA	2	687.32
AP	AA	3	661.10
AP	AA	4	619.56
AP	AA	5	717.87
AP	AB	1	307.19
AP	AB	2	536.92
AP	AB	3	516.44
AP	AB	4	483.98
AP	AB	5	560.78
AP	AC	1	492.48
AP	AC	2	860.76
AP	AC	3	827.92
AP	AC	4	775.89
AP	AC	5	899.02
AP	AD	1	281.92
AP	AD	2	492.75
AP	AD	3	473.95
AP	AD	4	444.16
AP	AD	5	514.65
AP	AE	1	360.53
AP	AE	2	630.14
AP	AE	3	606.10
AP	AE	4	568.01
AP	AE	5	658.15
AP	AF	1	512.91
AP	AF	2	896.47
AP	AF	3	862.27
AP	AF	4	808.08
AP	AF	5	936.32
AP	AG	1	464.02
AP	AG	2	811.03
AP	AG	3	780.09
AP	AG	4	731.06
AP	AG	5	847.07
AP	AH	1	223.35
AP	AH	2	390.37
AP	AH	3	375.48
AP	AH	4	351.88
AP	AH	5	407.72
AP	AI	1	103.09
AP	AI	2	180.18
AP	AI	3	173.31
AP	AI	4	162.42
AP	AI	5	188.19
AP	AJ	1	197.80
AP	AJ	2	345.72
AP	AJ	3	332.53
AP	AJ	4	311.63
AP	AJ	5	361.08
AQ	AA	1	28.83
AQ	AA	2	50.38
AQ	AA	3	48.46
AQ	AA	4	45.42
AQ	AA	5	52.62
AQ	AB	1	120.97
AQ	AB	2	211.43
AQ	AB	3	203.36
AQ	AB	4	190.58
AQ	AB	5	220.83
AQ	AC	1	119.70
AQ	AC	2	209.22
AQ	AC	3	201.24
AQ	AC	4	188.59
AQ	AC	5	218.52
AQ	AD	1	182.99
AQ	AD	2	319.84
AQ	AD	3	307.64
AQ	AD	4	288.30
AQ	AD	5	334.05
AQ	AE	1	601.85
AQ	AE	2	1051.93
AQ	AE	3	1011.80
AQ	AE	4	948.21
AQ	AE	5	1098.68
AQ	AF	1	112.29
AQ	AF	2	196.26
AQ	AF	3	188.78
AQ	AF	4	176.91
AQ	AF	5	204.99
AQ	AG	1	67.00
AQ	AG	2	117.11
AQ	AG	3	112.64
AQ	AG	4	105.56
AQ	AG	5	122.31
AQ	AH	1	296.74
AQ	AH	2	518.64
AQ	AH	3	498.86
AQ	AH	4	467.51
AQ	AH	5	541.70
AQ	AI	1	319.88
AQ	AI	2	559.09
AQ	AI	3	537.76
AQ	AI	4	503.97
AQ	AI	5	583.94
AQ	AJ	1	251.04
AQ	AJ	2	438.78
AQ	AJ	3	422.04
AQ	AJ	4	395.52
AQ	AJ	5	458.28
AR	AA	1	324.67
AR	AA	2	567.47
AR	AA	3	545.82
AR	AA	4	511.52
AR	AA	5	592.69
AR	AB	1	304.66
AR	AB	2	532.49
AR	AB	3	512.18
AR	AB	4	479.99
AR	AB	5	556.16
AR	AC	1	204.82
AR	AC	2	357.98
AR	AC	3	344.33
AR	AC	4	322.69
AR	AC	5	373.90
AR	AD	1	282.06
AR	AD	2	492.99
AR	AD	3	474.18
AR	AD	4	444.38
AR	AD	5	514.90
AR	AE	1	527.27
AR	AE	2	921.58
AR	AE	3	886.42
AR	AE	4	830.71
AR	AE	5	962.54
AR	AF	1	243.34
AR	AF	2	425.31
AR	AF	3	409.08
AR	AF	4	383.37
AR	AF	5	444.21
AR	AG	1	253.16
AR	AG	2	442.48
AR	AG	3	425.60
AR	AG	4	398.86
AR	AG	5	462.15
AR	AH	1	330.39
AR	AH	2	577.47
AR	AH	3	555.44
AR	AH	4	520.53
AR	AH	5	603.13
AR	AI	1	452.56
AR	AI	2	790.99
AR	AI	3	760.81
AR	AI	4	713.00
AR	AI	5	826.15
AR	AJ	1	355.50
AR	AJ	2	621.35
AR	AJ	3	597.65
AR	AJ	4	560.09
AR	AJ	5	648.97
AS	AA	1	513.08
AS	AA	2	896.77
AS	AA	3	862.56
AS	AA	4	808.36
AS	AA	5	936.63
AS	AB	1	409.17
AS	AB	2	715.16
AS	AB	3	687.88
AS	AB	4	644.65
AS	AB	5	746.94
AS	AC	1	549.27
AS	AC	2	960.02
AS	AC	3	923.40
AS	AC	4	865.37
AS	AC	5	1002.69
AS	AD	1	346.12
AS	AD	2	604.96
AS	AD	3	581.88
AS	AD	4	545.32
AS	AD	5	631.85
AS	AE	1	105.46
AS	AE	2	184.33
AS	AE	3	177.30
AS	AE	4	166.16
AS	AE	5	192.53
AS	AF	1	584.82
AS	AF	2	1022.16
AS	AF	3	983.17
AS	AF	4	921.38
AS	AF	5	1067.59
AS	AG	1	545.48
AS	AG	2	953.41
AS	AG	3	917.04
AS	AG	4	859.41
AS	AG	5	995.79
AS	AH	1	232.26
AS	AH	2	405.95
AS	AH	3	390.46
AS	AH	4	365.92
AS	AH	5	423.99
AS	AI	1	267.71
AS	AI	2	467.91
AS	AI	3	450.06
AS	AI	4	421.78
AS	AI	5	488.71
AS	AJ	1	283.94
AS	AJ	2	496.28
AS	AJ	3	477.35
AS	AJ	4	447.35
AS	AJ	5	518.34
AT	AA	1	181.74
AT	AA	2	317.65
AT	AA	3	305.53
AT	AA	4	286.33
AT	AA	5	331.77
AT	AB	1	77.96
AT	AB	2	136.26
AT	AB	3	131.07
AT	AB	4	122.83
AT	AB	5	142.32
AT	AC	1	240.89
AT	AC	2	421.03
AT	AC	3	404.96
AT	AC	4	379.52
AT	AC	5	439.74
AT	AD	1	25.57
AT	AD	2	44.70
AT	AD	3	42.99
AT	AD	4	40.29
AT	AD	5	46.69
AT	AE	1	409.22
AT	AE	2	715.25
AT	AE	3	687.96
AT	AE	4	644.73
AT	AE	5	747.04
AT	AF	1	267.76
AT	AF	2	468.00
AT	AF	3	450.15
AT	AF	4	421.86
AT	AF	5	488.80
AT	AG	1	222.45
AT	AG	2	388.80
AT	AG	3	373.97
AT	AG	4	350.47
AT	AG	5	406.08
AT	AH	1	101.73
AT	AH	2	177.80
AT	AH	3	171.01
AT	AH	4	160.27
AT	AH	5	185.70
AT	AI	1	154.08
AT	AI	2	269.30
AT	AI	3	259.03
AT	AI	4	242.75
AT	AI	5	281.27
AT	AJ	1	61.15
AT	AJ	2	106.88
AT	AJ	3	102.80
AT	AJ	4	96.34
AT	AJ	5	111.63
;

table R={R}  q(R)  p(R)  d(R):
	R	q	p	d	:=
	1	10.0	AA	AF
	2	30.0	AB	AG
	3	10.0	AC	AH
	4	10.0	AD	AI
	5	20.0	AE	AJ
;

